1493
1   1   0    51   0 3 11 19 35 27 2 1 0
1   2   0    0    0 0
1   3   0    48   0 5 8 7 6 0
1   4   0    54   0 4 12 20 28 36 14 22 39 31 23 15 0
1   5   0    59   0 10 18 26 34 33 25 17 9 16 24 32 37 29 21 13 0
2   1   0    0    0 0
2   2   0    57   0 54 62 70 78 71 79 80 72 64 56 63 55 47 0
2   3   0    48   0 45 42 41 44 0
2   4   0    60   0 50 58 66 74 30 38 73 65 57 49 76 68 60 52 46 0
2   5   0    55   0 48 53 61 69 77 75 40 67 59 51 43 0